NAME: berlin52
TYPE: TSP
COMMENT: 52 locations in Berlin (Groetschel)
DIMENSION: 5
EDGE_WEIGHT_TYPE: EUC_2D
NODE_COORD_SECTION
1 100 100
2 100 250
3 250 100
4 200 200
5 250 250
6 350 350
7 360 390
8 200 370
EOF
